(set-logic QF_UF)
(declare-fun A0 () Bool)
(declare-fun A1 () Bool)
(declare-fun A2 () Bool)
(declare-fun A3 () Bool)
(declare-fun A4 () Bool)
(declare-fun A5 () Bool)
(declare-fun A6 () Bool)
(declare-fun A7 () Bool)
(declare-fun A8 () Bool)
(declare-fun A9 () Bool)
(declare-fun A10 () Bool)
(declare-fun A11 () Bool)
(declare-fun A12 () Bool)
(declare-fun A13 () Bool)
(declare-fun A14 () Bool)
(declare-fun A15 () Bool)
(declare-fun A17 () Bool)
(declare-fun A18 () Bool)
(declare-fun A19 () Bool)
(declare-fun A20 () Bool)
(declare-fun A21 () Bool)
(declare-fun A22 () Bool)
(declare-fun A23 () Bool)
(declare-fun A24 () Bool)
(assert (let ((.def_0 (or A14 A4))) (let ((.def_1 (not .def_0))) (let ((.def_2 (not A4))) (let ((.def_3 (= .def_2 A22))) (let ((.def_4 (or .def_3 .def_1))) (let ((.def_5 (not A18))) (let ((.def_6 (and A4 .def_5))) (let ((.def_7 (not .def_6))) (let ((.def_8 (not A9))) (let ((.def_9 (not A6))) (let ((.def_10 (and .def_9 .def_8))) (let ((.def_11 (not .def_10))) (let ((.def_12 (or .def_11 .def_7))) (let ((.def_13 (not .def_12))) (let ((.def_14 (and .def_13 .def_4))) (let ((.def_15 (not .def_14))) (let ((.def_16 (or A12 A15))) (let ((.def_17 (not A23))) (let ((.def_18 (and .def_17 .def_5))) (let ((.def_19 (or .def_18 .def_16))) (let ((.def_20 (not .def_19))) (let ((.def_21 (not A8))) (let ((.def_22 (not A21))) (let ((.def_23 (or .def_22 .def_21))) (let ((.def_24 (not .def_23))) (let ((.def_25 (and A18 .def_21))) (let ((.def_26 (and .def_25 .def_24))) (let ((.def_27 (and .def_26 .def_20))) (let ((.def_28 (not .def_27))) (let ((.def_29 (or .def_28 .def_15))) (let ((.def_30 (not .def_29))) (let ((.def_31 (and A5 A9))) (let ((.def_32 (not .def_31))) (let ((.def_33 (not A24))) (let ((.def_34 (not A7))) (let ((.def_35 (and .def_34 .def_33))) (let ((.def_36 (not .def_35))) (let ((.def_37 (= .def_36 .def_32))) (let ((.def_38 (not .def_37))) (let ((.def_39 (not A11))) (let ((.def_40 (not A0))) (let ((.def_41 (or .def_40 .def_39))) (let ((.def_42 (and A17 .def_21))) (let ((.def_43 (= .def_42 .def_41))) (let ((.def_44 (and .def_43 .def_38))) (let ((.def_45 (not .def_44))) (let ((.def_46 (not A19))) (let ((.def_47 (and .def_46 A22))) (let ((.def_48 (not A22))) (let ((.def_49 (= .def_48 A10))) (let ((.def_50 (or .def_49 .def_47))) (let ((.def_51 (not .def_50))) (let ((.def_52 (not A2))) (let ((.def_53 (and A11 .def_52))) (let ((.def_54 (not .def_53))) (let ((.def_55 (and A8 .def_52))) (let ((.def_56 (not .def_55))) (let ((.def_57 (and .def_56 .def_54))) (let ((.def_58 (and .def_57 .def_51))) (let ((.def_59 (= .def_58 .def_45))) (let ((.def_60 (or .def_59 .def_30))) (let ((.def_61 (not A13))) (let ((.def_62 (and .def_61 .def_5))) (let ((.def_63 (not .def_62))) (let ((.def_64 (or .def_34 A3))) (let ((.def_65 (not .def_64))) (let ((.def_66 (and .def_65 .def_63))) (let ((.def_67 (not .def_66))) (let ((.def_68 (= A4 A23))) (let ((.def_69 (not .def_68))) (let ((.def_70 (or A1 A12))) (let ((.def_71 (or .def_70 .def_69))) (let ((.def_72 (or .def_71 .def_67))) (let ((.def_73 (not A20))) (let ((.def_74 (or A15 .def_73))) (let ((.def_75 (and A1 .def_21))) (let ((.def_76 (and .def_75 .def_74))) (let ((.def_77 (not .def_76))) (let ((.def_78 (not A10))) (let ((.def_79 (or .def_48 .def_78))) (let ((.def_80 (not .def_79))) (let ((.def_81 (not A15))) (let ((.def_82 (or A15 .def_81))) (let ((.def_83 (or .def_82 .def_80))) (let ((.def_84 (or .def_83 .def_77))) (let ((.def_85 (or .def_84 .def_72))) (let ((.def_86 (not .def_85))) (let ((.def_87 (and .def_2 .def_73))) (let ((.def_88 (not .def_87))) (let ((.def_89 (not A17))) (let ((.def_90 (or .def_89 A18))) (let ((.def_91 (or .def_90 .def_88))) (let ((.def_92 (not .def_91))) (let ((.def_93 (or A4 .def_5))) (let ((.def_94 (not A3))) (let ((.def_95 (and .def_48 .def_94))) (let ((.def_96 (or .def_95 .def_93))) (let ((.def_97 (and .def_96 .def_92))) (let ((.def_98 (or .def_46 .def_73))) (let ((.def_99 (not .def_98))) (let ((.def_100 (and A18 A7))) (let ((.def_101 (and .def_100 .def_99))) (let ((.def_102 (not .def_101))) (let ((.def_103 (or A3 A21))) (let ((.def_104 (or A24 A5))) (let ((.def_105 (not .def_104))) (let ((.def_106 (or .def_105 .def_103))) (let ((.def_107 (or .def_106 .def_102))) (let ((.def_108 (not .def_107))) (let ((.def_109 (and .def_108 .def_97))) (let ((.def_110 (not .def_109))) (let ((.def_111 (or .def_110 .def_86))) (let ((.def_112 (not .def_111))) (let ((.def_113 (and .def_112 .def_60))) (let ((.def_114 (not .def_113))) .def_114))))))))))))))))))))))))))))))))))))))))))))))))))))))))))))))))))))))))))))))))))))))))))))))))))))))))))))))))))))
(check-sat)
